NAME : eilA76.50.781.tour
COMMENT : Length = 781
COMMENT : Found by LKH [Keld Helsgaun] Mon Dec 10 23:16:05 2018
TYPE : TOUR
DIMENSION : 83
TOUR_SECTION
1
13
73
32
39
12
67
66
11
79
7
34
63
29
75
3
69
82
68
8
9
47
35
5
81
53
14
55
20
60
15
54
36
80
18
52
17
64
24
57
50
25
19
56
26
51
41
77
74
2
44
42
43
65
23
62
70
72
61
71
21
16
6
31
76
83
27
59
40
10
33
45
4
78
28
58
38
37
48
22
49
30
46
-1
EOF
